clingo/ec2asp-examples/logs/Commuter15-ea.log
clingo version 5.7.2
Reading from ../axioms/dec_clingo_dur.lp ...
Solving...
Answer: 1 (Time: 0.025s)
happens(walkTo(herneHill),1) happens(trainTo(victoria),6) happens(trainTo(southKen),10) happens(walkTo(work),12) holdsAt(at(home),0) holdsAt(at(work),13) holdsAt(at(herneHill),2) holdsAt(train(herneHill,victoria),0) holdsAt(train(herneHill,victoria),1) holdsAt(train(herneHill,victoria),2) holdsAt(train(herneHill,victoria),3) holdsAt(train(herneHill,victoria),4) holdsAt(train(herneHill,victoria),5) holdsAt(train(herneHill,victoria),6) holdsAt(train(herneHill,victoria),7) holdsAt(train(herneHill,victoria),8) holdsAt(train(herneHill,victoria),9) holdsAt(train(herneHill,victoria),10) holdsAt(train(herneHill,victoria),11) holdsAt(train(herneHill,victoria),12) holdsAt(train(herneHill,victoria),13) holdsAt(train(herneHill,victoria),14) holdsAt(train(herneHill,victoria),15) holdsAt(train(victoria,southKen),0) holdsAt(train(victoria,southKen),1) holdsAt(train(victoria,southKen),2) holdsAt(train(victoria,southKen),3) holdsAt(train(victoria,southKen),4) holdsAt(train(victoria,southKen),5) holdsAt(train(victoria,southKen),6) holdsAt(train(victoria,southKen),7) holdsAt(train(victoria,southKen),8) holdsAt(train(victoria,southKen),9) holdsAt(train(victoria,southKen),10) holdsAt(train(victoria,southKen),11) holdsAt(train(victoria,southKen),12) holdsAt(train(victoria,southKen),13) holdsAt(train(victoria,southKen),14) holdsAt(train(victoria,southKen),15) happens3(walkTo(herneHill),1,1) happens3(trainTo(victoria),6,6) happens3(trainTo(southKen),10,10) happens3(walkTo(work),12,12) holdsAt(at(work),14) holdsAt(at(work),15) holdsAt(at(herneHill),3) holdsAt(at(herneHill),4) holdsAt(at(herneHill),5) holdsAt(at(herneHill),6) holdsAt(at(victoria),7) holdsAt(at(work),16) holdsAt(at(home),1) holdsAt(at(victoria),8) holdsAt(at(victoria),9) holdsAt(at(victoria),10) holdsAt(at(southKen),11) holdsAt(at(southKen),12) happens3(goToWork,1,12) holdsAt(train(victoria,southKen),16) holdsAt(train(herneHill,victoria),16)
SATISFIABLE

Models       : 1
Calls        : 1
Time         : 0.026s (Solving: 0.00s 1st Model: 0.00s Unsat: 0.00s)
CPU Time     : 0.014s
